c Random generated cnf formula, satisfiable: false
p cnf 10 50
-7 9 1 0
3 7 4 0
-4 -6 -2 0
2 5 6 0
-2 8 -4 0
-5 6 -2 0
-5 -7 1 0
4 7 -5 0
1 -3 -2 0
10 -8 3 0
3 -7 -10 0
-10 5 -1 0
10 -4 -6 0
6 -9 -5 0
4 3 5 0
-8 10 -2 0
-3 -10 1 0
7 5 -10 0
3 9 2 0
8 -1 3 0
10 6 -1 0
10 9 -1 0
-4 -5 1 0
-4 -6 -7 0
-6 7 5 0
-2 -9 -1 0
-10 9 -1 0
-9 3 8 0
2 1 -9 0
-9 -8 -6 0
-5 9 10 0
-6 8 -5 0
4 9 -6 0
7 -4 -9 0
8 -2 4 0
7 5 1 0
9 -5 -8 0
-10 8 -1 0
-4 -3 -1 0
6 -2 9 0
6 -3 -5 0
-7 9 10 0
-3 1 -8 0
2 4 -5 0
10 -8 1 0
-4 9 3 0
9 -10 2 0
6 -9 5 0
8 -1 -4 0
-9 4 5 0
